NAME : amz1047.111458_111458.tour
COMMENT : Cost = 111458_111458
COMMENT : Found by LKH-AMZ [Keld Helsgaun] Sun May 11 14:44:51 2025
COMMENT : TW viol.: 0 #: 0
TYPE : TOUR
DIMENSION : 176
TOUR_SECTION
49
1
27
20
134
37
145
6
39
155
148
9
80
34
97
4
105
169
143
16
142
116
58
26
41
85
57
63
24
44
84
95
109
171
79
40
150
69
100
146
114
96
156
140
103
119
106
19
137
163
65
127
131
93
87
71
168
45
122
118
43
31
174
133
101
91
21
144
141
121
135
130
33
25
77
89
126
18
147
149
110
128
86
7
102
160
98
154
157
64
68
66
14
59
153
112
167
52
90
139
50
78
83
46
123
10
23
61
159
54
94
76
62
124
72
125
158
48
161
165
104
11
173
32
2
82
47
53
151
8
56
75
70
138
67
15
115
113
92
60
73
35
136
152
28
5
51
132
164
111
55
12
88
129
117
22
166
176
170
74
3
108
17
81
36
99
172
162
42
175
107
120
29
38
30
13
-1
EOF
